sat
(:added-eqs           2627257
 :binary-propagations 20981717
 :bv-bit2core         2623754
 :bv-diseqs           1095
 :bv-dynamic-diseqs   121473
 :bv-dynamic-eqs      5813
 :bv->core-eq         1520281
 :conflicts           68359
 :decisions           223437
 :del-clause          411232
 :final-checks        1
 :max-memory          47.42
 :memory              25.96
 :minimized-lits      750243
 :mk-bool-var         483101
 :mk-clause           549527
 :mk-clause-binary    33686
 :num-allocs          724735498
 :num-checks          1
 :propagations        54613513
 :restarts            287
 :rlimit-count        75904376
 :sat-mk-var          1
 :solve-eqs-elim-vars 4
 :solve-eqs-steps     1184
 :time                13.27
 :total-time          13.24)
